\ENCODING=ISO-8859-1
\Problem name: instances

Maximize
 obj:
Subject To
 c1: 86 x1 + 93 x2 + 41 x3 + 38 x4 + 98 x5 + 71 x6 + 16 x7 + 59 x8 + 65 x9
     + 29 x10 <= 523
 c2: 88 x1 + 23 x2 + 70 x3 - 73 x4 + 24 x5 - 62 x6 + 96 x7 + 66 x9 + 84 x10
     <= 236
 c3: 54 x1 + 9 x2 + 97 x3 + 53 x4 + 19 x5 + 10 x6 - 21 x7 + 50 x8 + 41 x9
     + 2 x10 <= 236
 c4: 40 x1 + 77 x2 + 49 x3 + 6 x4 + 5 x5 + 86 x6 + 8 x7 + 38 x8 + 26 x9 <= 135
 c5: 29 x1 + 43 x2 + 71 x3 + 2 x4 + 93 x5 + 29 x6 + 51 x7 - 15 x8 + 47 x9
     + 32 x10 <= 242
Bounds
      x1 >= 0
      x2 >= 0
      x3 >= 0
      x4 >= 0
      x5 >= 0
      x6 >= 0
      x7 >= 0
      x8 >= 0
      x9 >= 0
      x10 >= 0
Generals
 x1  x2  x3  x4  x5  x6  x7  x8  x9  x10 
End
